\ Model primal
\ LP format - for model browsing. Use MPS format to capture full model detail.
Maximize
  x[0] + 8 x[1]
Subject To
 p[0]: 18 x[0] + 19 x[1] <= 15
 p[1]: 11 x[0] + x[1] <= 10
 p[2]: x[0] + 6 x[1] <= 14
Bounds
End
